# Solution for model F-JSSP-SDST
# Objective value = 221
B0(15) 0
B1(15) 1
B2(13) 1
B3(13) 0
B4(16) 1
B5(16) 0
B6(14) 0
B7(14) 1
B8(15) 1
B9(15) 0
B10(13) 0
B11(13) 1
B12(0) 0
B13(0) 0
B14(4) 0
B15(4) 0
B16(4) 0
B17(4) 0
B18(0) 0
B19(0) 0
B20(4) 1
B21(4) 0
B22(4) 1
B23(4) 0
B24(0) 0
B25(0) 0
B26(0) 0
B27(0) 0
B28(4) 1
B29(4) 0
B30(0) 0
B31(0) 0
B32(0) 0
B33(0) 0
B34(4) 1
B35(4) 1
B36(0) 0
B37(0) 0
B38(0) 0
B39(0) 0
B40(0) 0
B41(0) 0
B42(0) 0
B43(0) 0
B44(0) 0
B45(0) 0
B46(0) 0
B47(0) 0
I48(16) 0
I49(16) 0
I50(17) 62
I51(17) 0
I52(16) 24
I53(16) 0
I54(17) 0
I55(17) 80
I56(16) 0
I57(16) 0
I58(17) 0
I59(17) 39
I60(1) 221
B61(2) 0
B62(2) 1
B63(4) 1
B64(4) 0
B65(2) 1
B66(2) 0
B67(4) 0
B68(4) 1
B69(2) 1
B70(2) 0
B71(4) 0
B72(4) 1
